c Grid graph 3x7
p edge 21 32
e 1 2
e 1 8
e 2 3
e 2 9
e 3 4
e 3 10
e 4 5
e 4 11
e 5 6
e 5 12
e 6 7
e 6 13
e 7 14
e 8 9
e 8 15
e 9 10
e 9 16
e 10 11
e 10 17
e 11 12
e 11 18
e 12 13
e 12 19
e 13 14
e 13 20
e 14 21
e 15 16
e 16 17
e 17 18
e 18 19
e 19 20
e 20 21
